
Gurobi 11.0.0 (linux64) logging started Tue Sep 17 03:16:48 2024

Set parameter LogFile to value "gurobi.log"
Set parameter InfUnbdInfo to value 1
Gurobi Optimizer version 11.0.0 build v11.0.0rc2 (linux64 - "Ubuntu 22.04.4 LTS")

CPU model: AMD EPYC 7V13 64-Core Processor, instruction set [SSE2|AVX|AVX2]
Thread count: 128 physical cores, 128 logical processors, using up to 32 threads

Optimize a model with 29 rows, 342 columns and 91 nonzeros
Model fingerprint: 0x4b0f4b82
Model has 339 quadratic constraints
Model has 1 general constraint
Variable types: 91 continuous, 251 integer (0 binary)
Coefficient statistics:
  Matrix range     [1e+00, 9e+06]
  QMatrix range    [1e+00, 9e+06]
  QLMatrix range   [1e+00, 9e+06]
  Objective range  [1e+00, 1e+00]
  Bounds range     [1e+00, 9e+15]
  RHS range        [1e+00, 1e+00]
  QRHS range       [1e+00, 2e+06]
Warning: Model contains large bounds
         Consider reformulating model or setting NumericFocus parameter
         to avoid numerical issues.
Using branch priorities (all 0).
Presolve added 31 rows and 0 columns
Presolve removed 0 rows and 35 columns
Presolve time: 0.01s
Presolved: 1127 rows, 528 columns, 2907 nonzeros
Presolved model has 86 SOS constraint(s)
Presolved model has 198 bilinear constraint(s)
Warning: Model contains variables with very large bounds participating
         in product terms.
         Presolve was not able to compute smaller bounds for these variables.
         Consider bounding these variables or reformulating the model.


Solving non-convex MIQCP

Variable types: 128 continuous, 400 integer (149 binary)

Root relaxation: objective 1.536331e+05, 299 iterations, 0.00 seconds (0.00 work units)

    Nodes    |    Current Node    |     Objective Bounds      |     Work
 Expl Unexpl |  Obj  Depth IntInf | Incumbent    BestBd   Gap | It/Node Time

     0     0 153633.106    0  177          - 153633.106      -     -    0s
     0     0 153635.327    0  172          - 153635.327      -     -    0s
H    0     0                    1.038505e+10 153635.327   100%     -    0s
H    0     0                    2.184845e+07 153635.327  99.3%     -    0s
H    0     0                    2.169485e+07 153635.327  99.3%     -    0s
     0     0 156749.010    0  130 2.1695e+07 156749.010  99.3%     -    0s
     0     0 156812.151    0  130 2.1695e+07 156812.151  99.3%     -    0s
     0     0 156833.997    0  126 2.1695e+07 156833.997  99.3%     -    0s
     0     0 164781.112    0  197 2.1695e+07 164781.112  99.2%     -    0s
     0     0 164816.664    0  213 2.1695e+07 164816.664  99.2%     -    0s
     0     0 166686.534    0  197 2.1695e+07 166686.534  99.2%     -    0s
H    0     0                    1.792550e+07 172103.324  99.0%     -    0s
     0     0 172103.324    0  150 1.7926e+07 172103.324  99.0%     -    0s
H    0     0                    1.240512e+07 172103.324  98.6%     -    0s
     0     0 172115.598    0  208 1.2405e+07 172115.598  98.6%     -    0s
     0     0 172133.852    0  162 1.2405e+07 172133.852  98.6%     -    0s
H    0     0                    1.217472e+07 172136.042  98.6%     -    0s
     0     0 172308.538    0  205 1.2175e+07 172308.538  98.6%     -    0s
     0     0 172331.321    0  192 1.2175e+07 172331.321  98.6%     -    0s
H    0     0                    1.115174e+07 172331.321  98.5%     -    0s
H    0     0                    1.111488e+07 172331.321  98.4%     -    0s
     0     0 172331.321    0  136 1.1115e+07 172331.321  98.4%     -    0s
     0     0 172342.834    0  167 1.1115e+07 172342.834  98.4%     -    0s
H    0     0                    1.088448e+07 172344.747  98.4%     -    0s
     0     0 172344.747    0  167 1.0884e+07 172344.747  98.4%     -    0s
     0     0 172344.747    0  167 1.0884e+07 172344.747  98.4%     -    0s
     0     0 172344.810    0  167 1.0884e+07 172344.810  98.4%     -    0s
     0     0 172344.810    0  164 1.0884e+07 172344.810  98.4%     -    0s
     0     0 172344.810    0  164 1.0884e+07 172344.810  98.4%     -    0s
     0     2 172345.260    0  164 1.0884e+07 172345.260  98.4%     -    0s
H   90    94                    1.047962e+07 172996.560  98.3%  34.9    1s
H  469   363                    1.047846e+07 172996.560  98.3%  15.9    2s
  1819   847 547298.926   24  127 1.0478e+07 177751.322  98.3%  11.4    5s
  7739  1853 9411042.67   12  111 1.0478e+07 570516.926  94.6%   7.3   10s
  8116  1831     cutoff   25      1.0478e+07 570516.926  94.6%   7.7   15s
  9159  1425 3631670.11   27   90 1.0478e+07 570516.926  94.6%   8.3   20s
 11255   729     cutoff   44      1.0478e+07 570516.926  94.6%   8.8   25s

Cutting planes:
  Learned: 1
  Gomory: 5
  Implied bound: 50
  MIR: 5
  Flow cover: 2
  RLT: 5
  Relax-and-lift: 12
  BQP: 1

Explored 11740 nodes (104741 simplex iterations) in 26.23 seconds (2.10 work units)
Thread count was 32 (of 128 available processors)

Solution count 10: 1.04785e+07 1.04785e+07 1.04796e+07 ... 1.24051e+07

Optimal solution found (tolerance 1.00e-10)
Warning: some integer variables take values larger than the maximum
         supported value (2000000000)
Best objective 1.047846400000e+07, best bound 1.047846400000e+07, gap 0.0000%
